c Standarized MaxSat Instance
c{
c "sha1sum": "bd49b4b298e2d51ea5ecd27922d603bc092aa9bc",
c "nvars": 64,
c "ncls": 1408,
c "nhards": 0,
c "nhard_len_stats":
c    { "min": 0, "max": 0, "ave": 0.00,
c      "stddev": 0.00 },
c "nsofts": 1408,
c "nsoft_len_stats":
c    { "min": 2, "max": 2, "ave": 2.00,
c      "stddev": 0.00 },
c "nsoft_wts": 10,
c "soft_wt_stats":
c    { "min": 1, "max": 10, "ave": 5.66,
c      "stddev": 2.82 }
c}
c------------------------------------------------------------
c File:  hamming6-4.clq
c
c Source: Panos Pardalos pardalos@math.ufl.edu
c
c Reference: hamminga-b is a Hamming graph on a-bit words with
c            an edge if and only if the two words are at least
c            hamming distance b apart
c
p wcnf 64 1408 7967
9 1 16 0
9 -1 -16 0
4 1 24 0
4 -1 -24 0
8 1 28 0
8 -1 -28 0
8 1 30 0
8 -1 -30 0
10 1 31 0
10 -1 -31 0
2 1 32 0
2 -1 -32 0
4 1 40 0
4 -1 -40 0
8 1 44 0
8 -1 -44 0
3 1 46 0
3 -1 -46 0
6 1 47 0
6 -1 -47 0
5 1 48 0
5 -1 -48 0
7 1 52 0
7 -1 -52 0
4 1 54 0
4 -1 -54 0
6 1 55 0
6 -1 -55 0
10 1 56 0
10 -1 -56 0
10 1 58 0
10 -1 -58 0
7 1 59 0
7 -1 -59 0
8 1 60 0
8 -1 -60 0
2 1 61 0
2 -1 -61 0
7 1 62 0
7 -1 -62 0
1 1 63 0
1 -1 -63 0
3 1 64 0
3 -1 -64 0
2 2 15 0
2 -2 -15 0
9 2 23 0
9 -2 -23 0
2 2 27 0
2 -2 -27 0
5 2 29 0
5 -2 -29 0
2 2 31 0
2 -2 -31 0
2 2 32 0
2 -2 -32 0
10 2 39 0
10 -2 -39 0
3 2 43 0
3 -2 -43 0
6 2 45 0
6 -2 -45 0
9 2 47 0
9 -2 -47 0
7 2 48 0
7 -2 -48 0
3 2 51 0
3 -2 -51 0
7 2 53 0
7 -2 -53 0
6 2 55 0
6 -2 -55 0
5 2 56 0
5 -2 -56 0
10 2 57 0
10 -2 -57 0
3 2 59 0
3 -2 -59 0
8 2 60 0
8 -2 -60 0
6 2 61 0
6 -2 -61 0
8 2 62 0
8 -2 -62 0
5 2 63 0
5 -2 -63 0
9 2 64 0
9 -2 -64 0
3 3 14 0
3 -3 -14 0
4 3 22 0
4 -3 -22 0
9 3 26 0
9 -3 -26 0
10 3 29 0
10 -3 -29 0
1 3 30 0
1 -3 -30 0
10 3 32 0
10 -3 -32 0
6 3 38 0
6 -3 -38 0
1 3 42 0
1 -3 -42 0
2 3 45 0
2 -3 -45 0
7 3 46 0
7 -3 -46 0
9 3 48 0
9 -3 -48 0
4 3 50 0
4 -3 -50 0
1 3 53 0
1 -3 -53 0
1 3 54 0
1 -3 -54 0
5 3 56 0
5 -3 -56 0
1 3 57 0
1 -3 -57 0
3 3 58 0
3 -3 -58 0
10 3 60 0
10 -3 -60 0
10 3 61 0
10 -3 -61 0
9 3 62 0
9 -3 -62 0
3 3 63 0
3 -3 -63 0
6 3 64 0
6 -3 -64 0
4 4 13 0
4 -4 -13 0
8 4 21 0
8 -4 -21 0
6 4 25 0
6 -4 -25 0
7 4 29 0
7 -4 -29 0
6 4 30 0
6 -4 -30 0
1 4 31 0
1 -4 -31 0
5 4 37 0
5 -4 -37 0
10 4 41 0
10 -4 -41 0
10 4 45 0
10 -4 -45 0
8 4 46 0
8 -4 -46 0
3 4 47 0
3 -4 -47 0
8 4 49 0
8 -4 -49 0
7 4 53 0
7 -4 -53 0
4 4 54 0
4 -4 -54 0
7 4 55 0
7 -4 -55 0
2 4 57 0
2 -4 -57 0
5 4 58 0
5 -4 -58 0
9 4 59 0
9 -4 -59 0
9 4 61 0
9 -4 -61 0
4 4 62 0
4 -4 -62 0
3 4 63 0
3 -4 -63 0
9 4 64 0
9 -4 -64 0
4 5 12 0
4 -5 -12 0
7 5 20 0
7 -5 -20 0
10 5 26 0
10 -5 -26 0
6 5 27 0
6 -5 -27 0
7 5 28 0
7 -5 -28 0
9 5 32 0
9 -5 -32 0
5 5 36 0
5 -5 -36 0
10 5 42 0
10 -5 -42 0
4 5 43 0
4 -5 -43 0
9 5 44 0
9 -5 -44 0
7 5 48 0
7 -5 -48 0
10 5 50 0
10 -5 -50 0
5 5 51 0
5 -5 -51 0
3 5 52 0
3 -5 -52 0
10 5 56 0
10 -5 -56 0
10 5 57 0
10 -5 -57 0
2 5 58 0
2 -5 -58 0
9 5 59 0
9 -5 -59 0
7 5 60 0
7 -5 -60 0
5 5 62 0
5 -5 -62 0
7 5 63 0
7 -5 -63 0
3 5 64 0
3 -5 -64 0
8 6 11 0
8 -6 -11 0
4 6 19 0
4 -6 -19 0
5 6 25 0
5 -6 -25 0
3 6 27 0
3 -6 -27 0
2 6 28 0
2 -6 -28 0
3 6 31 0
3 -6 -31 0
6 6 35 0
6 -6 -35 0
5 6 41 0
5 -6 -41 0
2 6 43 0
2 -6 -43 0
10 6 44 0
10 -6 -44 0
2 6 47 0
2 -6 -47 0
2 6 49 0
2 -6 -49 0
5 6 51 0
5 -6 -51 0
8 6 52 0
8 -6 -52 0
10 6 55 0
10 -6 -55 0
10 6 57 0
10 -6 -57 0
7 6 58 0
7 -6 -58 0
4 6 59 0
4 -6 -59 0
8 6 60 0
8 -6 -60 0
4 6 61 0
4 -6 -61 0
3 6 63 0
3 -6 -63 0
3 6 64 0
3 -6 -64 0
6 7 10 0
6 -7 -10 0
3 7 18 0
3 -7 -18 0
2 7 25 0
2 -7 -25 0
8 7 26 0
8 -7 -26 0
2 7 28 0
2 -7 -28 0
8 7 30 0
8 -7 -30 0
2 7 34 0
2 -7 -34 0
8 7 41 0
8 -7 -41 0
1 7 42 0
1 -7 -42 0
10 7 44 0
10 -7 -44 0
1 7 46 0
1 -7 -46 0
6 7 49 0
6 -7 -49 0
2 7 50 0
2 -7 -50 0
3 7 52 0
3 -7 -52 0
8 7 54 0
8 -7 -54 0
8 7 57 0
8 -7 -57 0
7 7 58 0
7 -7 -58 0
10 7 59 0
10 -7 -59 0
7 7 60 0
7 -7 -60 0
8 7 61 0
8 -7 -61 0
1 7 62 0
1 -7 -62 0
2 7 64 0
2 -7 -64 0
6 8 9 0
6 -8 -9 0
1 8 17 0
1 -8 -17 0
1 8 25 0
1 -8 -25 0
3 8 26 0
3 -8 -26 0
5 8 27 0
5 -8 -27 0
9 8 29 0
9 -8 -29 0
6 8 33 0
6 -8 -33 0
8 8 41 0
8 -8 -41 0
1 8 42 0
1 -8 -42 0
2 8 43 0
2 -8 -43 0
10 8 45 0
10 -8 -45 0
3 8 49 0
3 -8 -49 0
9 8 50 0
9 -8 -50 0
2 8 51 0
2 -8 -51 0
10 8 53 0
10 -8 -53 0
1 8 57 0
1 -8 -57 0
9 8 58 0
9 -8 -58 0
1 8 59 0
1 -8 -59 0
1 8 60 0
1 -8 -60 0
10 8 61 0
10 -8 -61 0
6 8 62 0
6 -8 -62 0
2 8 63 0
2 -8 -63 0
2 9 20 0
2 -9 -20 0
4 9 22 0
4 -9 -22 0
10 9 23 0
10 -9 -23 0
9 9 24 0
9 -9 -24 0
4 9 32 0
4 -9 -32 0
6 9 36 0
6 -9 -36 0
6 9 38 0
6 -9 -38 0
5 9 39 0
5 -9 -39 0
7 9 40 0
7 -9 -40 0
1 9 48 0
1 -9 -48 0
6 9 50 0
6 -9 -50 0
8 9 51 0
8 -9 -51 0
4 9 52 0
4 -9 -52 0
10 9 53 0
10 -9 -53 0
6 9 54 0
6 -9 -54 0
9 9 55 0
9 -9 -55 0
8 9 56 0
8 -9 -56 0
7 9 60 0
7 -9 -60 0
1 9 62 0
1 -9 -62 0
8 9 63 0
8 -9 -63 0
9 9 64 0
9 -9 -64 0
10 10 19 0
10 -10 -19 0
9 10 21 0
9 -10 -21 0
9 10 23 0
9 -10 -23 0
10 10 24 0
10 -10 -24 0
8 10 31 0
8 -10 -31 0
10 10 35 0
10 -10 -35 0
10 10 37 0
10 -10 -37 0
7 10 39 0
7 -10 -39 0
5 10 40 0
5 -10 -40 0
2 10 47 0
2 -10 -47 0
9 10 49 0
9 -10 -49 0
9 10 51 0
9 -10 -51 0
1 10 52 0
1 -10 -52 0
7 10 53 0
7 -10 -53 0
3 10 54 0
3 -10 -54 0
7 10 55 0
7 -10 -55 0
3 10 56 0
3 -10 -56 0
8 10 59 0
8 -10 -59 0
4 10 61 0
4 -10 -61 0
4 10 63 0
4 -10 -63 0
3 10 64 0
3 -10 -64 0
1 11 18 0
1 -11 -18 0
7 11 21 0
7 -11 -21 0
3 11 22 0
3 -11 -22 0
7 11 24 0
7 -11 -24 0
6 11 30 0
6 -11 -30 0
10 11 34 0
10 -11 -34 0
3 11 37 0
3 -11 -37 0
6 11 38 0
6 -11 -38 0
8 11 40 0
8 -11 -40 0
2 11 46 0
2 -11 -46 0
5 11 49 0
5 -11 -49 0
6 11 50 0
6 -11 -50 0
10 11 52 0
10 -11 -52 0
5 11 53 0
5 -11 -53 0
4 11 54 0
4 -11 -54 0
9 11 55 0
9 -11 -55 0
5 11 56 0
5 -11 -56 0
1 11 58 0
1 -11 -58 0
4 11 61 0
4 -11 -61 0
6 11 62 0
6 -11 -62 0
9 11 64 0
9 -11 -64 0
3 12 17 0
3 -12 -17 0
7 12 21 0
7 -12 -21 0
5 12 22 0
5 -12 -22 0
5 12 23 0
5 -12 -23 0
4 12 29 0
4 -12 -29 0
8 12 33 0
8 -12 -33 0
2 12 37 0
2 -12 -37 0
7 12 38 0
7 -12 -38 0
1 12 39 0
1 -12 -39 0
5 12 45 0
5 -12 -45 0
7 12 49 0
7 -12 -49 0
7 12 50 0
7 -12 -50 0
7 12 51 0
7 -12 -51 0
4 12 53 0
4 -12 -53 0
2 12 54 0
2 -12 -54 0
7 12 55 0
7 -12 -55 0
7 12 56 0
7 -12 -56 0
8 12 57 0
8 -12 -57 0
4 12 61 0
4 -12 -61 0
8 12 62 0
8 -12 -62 0
3 12 63 0
3 -12 -63 0
10 13 18 0
10 -13 -18 0
7 13 19 0
7 -13 -19 0
7 13 20 0
7 -13 -20 0
3 13 24 0
3 -13 -24 0
6 13 28 0
6 -13 -28 0
1 13 34 0
1 -13 -34 0
3 13 35 0
3 -13 -35 0
9 13 36 0
9 -13 -36 0
7 13 40 0
7 -13 -40 0
1 13 44 0
1 -13 -44 0
2 13 49 0
2 -13 -49 0
4 13 50 0
4 -13 -50 0
6 13 51 0
6 -13 -51 0
6 13 52 0
6 -13 -52 0
7 13 54 0
7 -13 -54 0
3 13 55 0
3 -13 -55 0
8 13 56 0
8 -13 -56 0
3 13 58 0
3 -13 -58 0
4 13 59 0
4 -13 -59 0
2 13 60 0
2 -13 -60 0
10 13 64 0
10 -13 -64 0
1 14 17 0
1 -14 -17 0
9 14 19 0
9 -14 -19 0
4 14 20 0
4 -14 -20 0
2 14 23 0
2 -14 -23 0
5 14 27 0
5 -14 -27 0
10 14 33 0
10 -14 -33 0
10 14 35 0
10 -14 -35 0
8 14 36 0
8 -14 -36 0
7 14 39 0
7 -14 -39 0
2 14 43 0
2 -14 -43 0
7 14 49 0
7 -14 -49 0
4 14 50 0
4 -14 -50 0
8 14 51 0
8 -14 -51 0
10 14 52 0
10 -14 -52 0
10 14 53 0
10 -14 -53 0
9 14 55 0
9 -14 -55 0
3 14 56 0
3 -14 -56 0
8 14 57 0
8 -14 -57 0
6 14 59 0
6 -14 -59 0
3 14 60 0
3 -14 -60 0
10 14 63 0
10 -14 -63 0
10 15 17 0
10 -15 -17 0
9 15 18 0
9 -15 -18 0
5 15 20 0
5 -15 -20 0
6 15 22 0
6 -15 -22 0
2 15 26 0
2 -15 -26 0
3 15 33 0
3 -15 -33 0
9 15 34 0
9 -15 -34 0
5 15 36 0
5 -15 -36 0
5 15 38 0
5 -15 -38 0
9 15 42 0
9 -15 -42 0
5 15 49 0
5 -15 -49 0
3 15 50 0
3 -15 -50 0
2 15 51 0
2 -15 -51 0
7 15 52 0
7 -15 -52 0
8 15 53 0
8 -15 -53 0
2 15 54 0
2 -15 -54 0
7 15 56 0
7 -15 -56 0
5 15 57 0
5 -15 -57 0
9 15 58 0
9 -15 -58 0
8 15 60 0
8 -15 -60 0
2 15 62 0
2 -15 -62 0
3 16 17 0
3 -16 -17 0
5 16 18 0
5 -16 -18 0
2 16 19 0
2 -16 -19 0
2 16 21 0
2 -16 -21 0
4 16 25 0
4 -16 -25 0
4 16 33 0
4 -16 -33 0
10 16 34 0
10 -16 -34 0
10 16 35 0
10 -16 -35 0
7 16 37 0
7 -16 -37 0
9 16 41 0
9 -16 -41 0
9 16 49 0
9 -16 -49 0
5 16 50 0
5 -16 -50 0
4 16 51 0
4 -16 -51 0
4 16 52 0
4 -16 -52 0
7 16 53 0
7 -16 -53 0
7 16 54 0
7 -16 -54 0
3 16 55 0
3 -16 -55 0
2 16 57 0
2 -16 -57 0
1 16 58 0
1 -16 -58 0
2 16 59 0
2 -16 -59 0
7 16 61 0
7 -16 -61 0
4 17 32 0
4 -17 -32 0
3 17 36 0
3 -17 -36 0
4 17 38 0
4 -17 -38 0
1 17 39 0
1 -17 -39 0
5 17 40 0
5 -17 -40 0
10 17 42 0
10 -17 -42 0
6 17 43 0
6 -17 -43 0
3 17 44 0
3 -17 -44 0
7 17 45 0
7 -17 -45 0
8 17 46 0
8 -17 -46 0
5 17 47 0
5 -17 -47 0
2 17 48 0
2 -17 -48 0
9 17 56 0
9 -17 -56 0
7 17 60 0
7 -17 -60 0
6 17 62 0
6 -17 -62 0
3 17 63 0
3 -17 -63 0
6 17 64 0
6 -17 -64 0
5 18 31 0
5 -18 -31 0
9 18 35 0
9 -18 -35 0
4 18 37 0
4 -18 -37 0
3 18 39 0
3 -18 -39 0
4 18 40 0
4 -18 -40 0
8 18 41 0
8 -18 -41 0
7 18 43 0
7 -18 -43 0
10 18 44 0
10 -18 -44 0
4 18 45 0
4 -18 -45 0
9 18 46 0
9 -18 -46 0
2 18 47 0
2 -18 -47 0
5 18 48 0
5 -18 -48 0
1 18 55 0
1 -18 -55 0
8 18 59 0
8 -18 -59 0
8 18 61 0
8 -18 -61 0
3 18 63 0
3 -18 -63 0
2 18 64 0
2 -18 -64 0
9 19 30 0
9 -19 -30 0
8 19 34 0
8 -19 -34 0
1 19 37 0
1 -19 -37 0
5 19 38 0
5 -19 -38 0
10 19 40 0
10 -19 -40 0
8 19 41 0
8 -19 -41 0
3 19 42 0
3 -19 -42 0
5 19 44 0
5 -19 -44 0
9 19 45 0
9 -19 -45 0
1 19 46 0
1 -19 -46 0
1 19 47 0
1 -19 -47 0
4 19 48 0
4 -19 -48 0
4 19 54 0
4 -19 -54 0
7 19 58 0
7 -19 -58 0
9 19 61 0
9 -19 -61 0
2 19 62 0
2 -19 -62 0
1 19 64 0
1 -19 -64 0
1 20 29 0
1 -20 -29 0
5 20 33 0
5 -20 -33 0
8 20 37 0
8 -20 -37 0
7 20 38 0
7 -20 -38 0
5 20 39 0
5 -20 -39 0
2 20 41 0
2 -20 -41 0
6 20 42 0
6 -20 -42 0
6 20 43 0
6 -20 -43 0
6 20 45 0
6 -20 -45 0
6 20 46 0
6 -20 -46 0
4 20 47 0
4 -20 -47 0
4 20 48 0
4 -20 -48 0
9 20 53 0
9 -20 -53 0
5 20 57 0
5 -20 -57 0
2 20 61 0
2 -20 -61 0
7 20 62 0
7 -20 -62 0
6 20 63 0
6 -20 -63 0
7 21 28 0
7 -21 -28 0
6 21 34 0
6 -21 -34 0
3 21 35 0
3 -21 -35 0
9 21 36 0
9 -21 -36 0
1 21 40 0
1 -21 -40 0
1 21 41 0
1 -21 -41 0
10 21 42 0
10 -21 -42 0
2 21 43 0
2 -21 -43 0
5 21 44 0
5 -21 -44 0
3 21 46 0
3 -21 -46 0
9 21 47 0
9 -21 -47 0
3 21 48 0
3 -21 -48 0
4 21 52 0
4 -21 -52 0
9 21 58 0
9 -21 -58 0
4 21 59 0
4 -21 -59 0
9 21 60 0
9 -21 -60 0
7 21 64 0
7 -21 -64 0
1 22 27 0
1 -22 -27 0
3 22 33 0
3 -22 -33 0
8 22 35 0
8 -22 -35 0
7 22 36 0
7 -22 -36 0
9 22 39 0
9 -22 -39 0
4 22 41 0
4 -22 -41 0
3 22 42 0
3 -22 -42 0
2 22 43 0
2 -22 -43 0
7 22 44 0
7 -22 -44 0
2 22 45 0
2 -22 -45 0
7 22 47 0
7 -22 -47 0
8 22 48 0
8 -22 -48 0
8 22 51 0
8 -22 -51 0
3 22 57 0
3 -22 -57 0
5 22 59 0
5 -22 -59 0
4 22 60 0
4 -22 -60 0
5 22 63 0
5 -22 -63 0
3 23 26 0
3 -23 -26 0
4 23 33 0
4 -23 -33 0
6 23 34 0
6 -23 -34 0
2 23 36 0
2 -23 -36 0
6 23 38 0
6 -23 -38 0
1 23 41 0
1 -23 -41 0
4 23 42 0
4 -23 -42 0
4 23 43 0
4 -23 -43 0
4 23 44 0
4 -23 -44 0
8 23 45 0
8 -23 -45 0
3 23 46 0
3 -23 -46 0
7 23 48 0
7 -23 -48 0
6 23 50 0
6 -23 -50 0
10 23 57 0
10 -23 -57 0
7 23 58 0
7 -23 -58 0
9 23 60 0
9 -23 -60 0
7 23 62 0
7 -23 -62 0
4 24 25 0
4 -24 -25 0
7 24 33 0
7 -24 -33 0
1 24 34 0
1 -24 -34 0
6 24 35 0
6 -24 -35 0
9 24 37 0
9 -24 -37 0
7 24 41 0
7 -24 -41 0
7 24 42 0
7 -24 -42 0
6 24 43 0
6 -24 -43 0
5 24 44 0
5 -24 -44 0
4 24 45 0
4 -24 -45 0
8 24 46 0
8 -24 -46 0
9 24 47 0
9 -24 -47 0
7 24 49 0
7 -24 -49 0
2 24 57 0
2 -24 -57 0
1 24 58 0
1 -24 -58 0
1 24 59 0
1 -24 -59 0
7 24 61 0
7 -24 -61 0
2 25 34 0
2 -25 -34 0
7 25 35 0
7 -25 -35 0
8 25 36 0
8 -25 -36 0
6 25 37 0
6 -25 -37 0
1 25 38 0
1 -25 -38 0
1 25 39 0
1 -25 -39 0
4 25 40 0
4 -25 -40 0
3 25 44 0
3 -25 -44 0
7 25 46 0
7 -25 -46 0
9 25 47 0
9 -25 -47 0
2 25 48 0
2 -25 -48 0
4 25 52 0
4 -25 -52 0
7 25 54 0
7 -25 -54 0
9 25 55 0
9 -25 -55 0
7 25 56 0
7 -25 -56 0
4 25 64 0
4 -25 -64 0
9 26 33 0
9 -26 -33 0
2 26 35 0
2 -26 -35 0
2 26 36 0
2 -26 -36 0
6 26 37 0
6 -26 -37 0
9 26 38 0
9 -26 -38 0
7 26 39 0
7 -26 -39 0
10 26 40 0
10 -26 -40 0
2 26 43 0
2 -26 -43 0
4 26 45 0
4 -26 -45 0
8 26 47 0
8 -26 -47 0
9 26 48 0
9 -26 -48 0
6 26 51 0
6 -26 -51 0
8 26 53 0
8 -26 -53 0
10 26 55 0
10 -26 -55 0
3 26 56 0
3 -26 -56 0
10 26 63 0
10 -26 -63 0
6 27 33 0
6 -27 -33 0
10 27 34 0
10 -27 -34 0
5 27 36 0
5 -27 -36 0
6 27 37 0
6 -27 -37 0
10 27 38 0
10 -27 -38 0
8 27 39 0
8 -27 -39 0
9 27 40 0
9 -27 -40 0
6 27 42 0
6 -27 -42 0
7 27 45 0
7 -27 -45 0
10 27 46 0
10 -27 -46 0
10 27 48 0
10 -27 -48 0
4 27 50 0
4 -27 -50 0
9 27 53 0
9 -27 -53 0
6 27 54 0
6 -27 -54 0
7 27 56 0
7 -27 -56 0
8 27 62 0
8 -27 -62 0
8 28 33 0
8 -28 -33 0
8 28 34 0
8 -28 -34 0
3 28 35 0
3 -28 -35 0
7 28 37 0
7 -28 -37 0
5 28 38 0
5 -28 -38 0
2 28 39 0
2 -28 -39 0
8 28 40 0
8 -28 -40 0
9 28 41 0
9 -28 -41 0
9 28 45 0
9 -28 -45 0
7 28 46 0
7 -28 -46 0
5 28 47 0
5 -28 -47 0
7 28 49 0
7 -28 -49 0
6 28 53 0
6 -28 -53 0
7 28 54 0
7 -28 -54 0
6 28 55 0
6 -28 -55 0
2 28 61 0
2 -28 -61 0
6 29 33 0
6 -29 -33 0
1 29 34 0
1 -29 -34 0
8 29 35 0
8 -29 -35 0
6 29 36 0
6 -29 -36 0
9 29 38 0
9 -29 -38 0
6 29 39 0
6 -29 -39 0
2 29 40 0
2 -29 -40 0
5 29 42 0
5 -29 -42 0
6 29 43 0
6 -29 -43 0
1 29 44 0
1 -29 -44 0
9 29 48 0
9 -29 -48 0
4 29 50 0
4 -29 -50 0
7 29 51 0
7 -29 -51 0
5 29 52 0
5 -29 -52 0
2 29 56 0
2 -29 -56 0
5 29 60 0
5 -29 -60 0
3 30 33 0
3 -30 -33 0
5 30 34 0
5 -30 -34 0
1 30 35 0
1 -30 -35 0
8 30 36 0
8 -30 -36 0
6 30 37 0
6 -30 -37 0
9 30 39 0
9 -30 -39 0
6 30 40 0
6 -30 -40 0
5 30 41 0
5 -30 -41 0
5 30 43 0
5 -30 -43 0
10 30 44 0
10 -30 -44 0
1 30 47 0
1 -30 -47 0
1 30 49 0
1 -30 -49 0
7 30 51 0
7 -30 -51 0
6 30 52 0
6 -30 -52 0
3 30 55 0
3 -30 -55 0
3 30 59 0
3 -30 -59 0
7 31 33 0
7 -31 -33 0
10 31 34 0
10 -31 -34 0
8 31 35 0
8 -31 -35 0
5 31 36 0
5 -31 -36 0
5 31 37 0
5 -31 -37 0
9 31 38 0
9 -31 -38 0
10 31 40 0
10 -31 -40 0
10 31 41 0
10 -31 -41 0
9 31 42 0
9 -31 -42 0
8 31 44 0
8 -31 -44 0
4 31 46 0
4 -31 -46 0
6 31 49 0
6 -31 -49 0
3 31 50 0
3 -31 -50 0
5 31 52 0
5 -31 -52 0
10 31 54 0
10 -31 -54 0
5 31 58 0
5 -31 -58 0
9 32 33 0
9 -32 -33 0
10 32 34 0
10 -32 -34 0
2 32 35 0
2 -32 -35 0
5 32 36 0
5 -32 -36 0
8 32 37 0
8 -32 -37 0
8 32 38 0
8 -32 -38 0
10 32 39 0
10 -32 -39 0
3 32 41 0
3 -32 -41 0
8 32 42 0
8 -32 -42 0
10 32 43 0
10 -32 -43 0
4 32 45 0
4 -32 -45 0
5 32 49 0
5 -32 -49 0
6 32 50 0
6 -32 -50 0
6 32 51 0
6 -32 -51 0
7 32 53 0
7 -32 -53 0
2 32 57 0
2 -32 -57 0
5 33 48 0
5 -33 -48 0
4 33 56 0
4 -33 -56 0
7 33 60 0
7 -33 -60 0
10 33 62 0
10 -33 -62 0
3 33 63 0
3 -33 -63 0
7 33 64 0
7 -33 -64 0
9 34 47 0
9 -34 -47 0
2 34 55 0
2 -34 -55 0
4 34 59 0
4 -34 -59 0
2 34 61 0
2 -34 -61 0
7 34 63 0
7 -34 -63 0
6 34 64 0
6 -34 -64 0
7 35 46 0
7 -35 -46 0
6 35 54 0
6 -35 -54 0
1 35 58 0
1 -35 -58 0
6 35 61 0
6 -35 -61 0
6 35 62 0
6 -35 -62 0
3 35 64 0
3 -35 -64 0
1 36 45 0
1 -36 -45 0
4 36 53 0
4 -36 -53 0
1 36 57 0
1 -36 -57 0
10 36 61 0
10 -36 -61 0
7 36 62 0
7 -36 -62 0
8 36 63 0
8 -36 -63 0
9 37 44 0
9 -37 -44 0
10 37 52 0
10 -37 -52 0
2 37 58 0
2 -37 -58 0
5 37 59 0
5 -37 -59 0
5 37 60 0
5 -37 -60 0
8 37 64 0
8 -37 -64 0
7 38 43 0
7 -38 -43 0
10 38 51 0
10 -38 -51 0
2 38 57 0
2 -38 -57 0
3 38 59 0
3 -38 -59 0
9 38 60 0
9 -38 -60 0
4 38 63 0
4 -38 -63 0
9 39 42 0
9 -39 -42 0
8 39 50 0
8 -39 -50 0
5 39 57 0
5 -39 -57 0
3 39 58 0
3 -39 -58 0
10 39 60 0
10 -39 -60 0
2 39 62 0
2 -39 -62 0
9 40 41 0
9 -40 -41 0
7 40 49 0
7 -40 -49 0
8 40 57 0
8 -40 -57 0
10 40 58 0
10 -40 -58 0
2 40 59 0
2 -40 -59 0
3 40 61 0
3 -40 -61 0
2 41 52 0
2 -41 -52 0
3 41 54 0
3 -41 -54 0
7 41 55 0
7 -41 -55 0
2 41 56 0
2 -41 -56 0
2 41 64 0
2 -41 -64 0
3 42 51 0
3 -42 -51 0
10 42 53 0
10 -42 -53 0
1 42 55 0
1 -42 -55 0
2 42 56 0
2 -42 -56 0
2 42 63 0
2 -42 -63 0
5 43 50 0
5 -43 -50 0
7 43 53 0
7 -43 -53 0
10 43 54 0
10 -43 -54 0
2 43 56 0
2 -43 -56 0
7 43 62 0
7 -43 -62 0
1 44 49 0
1 -44 -49 0
4 44 53 0
4 -44 -53 0
5 44 54 0
5 -44 -54 0
5 44 55 0
5 -44 -55 0
3 44 61 0
3 -44 -61 0
3 45 50 0
3 -45 -50 0
10 45 51 0
10 -45 -51 0
6 45 52 0
6 -45 -52 0
2 45 56 0
2 -45 -56 0
1 45 60 0
1 -45 -60 0
5 46 49 0
5 -46 -49 0
9 46 51 0
9 -46 -51 0
8 46 52 0
8 -46 -52 0
4 46 55 0
4 -46 -55 0
10 46 59 0
10 -46 -59 0
1 47 49 0
1 -47 -49 0
6 47 50 0
6 -47 -50 0
3 47 52 0
3 -47 -52 0
7 47 54 0
7 -47 -54 0
7 47 58 0
7 -47 -58 0
4 48 49 0
4 -48 -49 0
9 48 50 0
9 -48 -50 0
7 48 51 0
7 -48 -51 0
4 48 53 0
4 -48 -53 0
1 48 57 0
1 -48 -57 0
8 49 64 0
8 -49 -64 0
9 50 63 0
9 -50 -63 0
7 51 62 0
7 -51 -62 0
7 52 61 0
7 -52 -61 0
10 53 60 0
10 -53 -60 0
4 54 59 0
4 -54 -59 0
8 55 58 0
8 -55 -58 0
3 56 57 0
3 -56 -57 0
